Sun 20 May 09:30:53 CEST 2018
CPXPARAM_TimeLimit                               45
CPXPARAM_Threads                                 4
CPXPARAM_MIP_Strategy_CallbackReducedLP          0
Tried aggregator 4 times.
MIP Presolve eliminated 640 rows and 621 columns.
MIP Presolve modified 802 coefficients.
Aggregator did 1572 substitutions.
Reduced MIP has 1982 rows, 1339 columns, and 4218 nonzeros.
Reduced MIP has 1297 binaries, 4 generals, 0 SOSs, and 135 indicators.
Presolve time = 0.02 sec. (17.16 ticks)
Found incumbent of value 7.000000 after 0.02 sec. (25.55 ticks)
Probing time = 0.01 sec. (9.92 ticks)
Cover probing fixed 0 vars, tightened 3 bounds.
Tried aggregator 3 times.
MIP Presolve modified 36 coefficients.
Aggregator did 934 substitutions.
Reduced MIP has 1066 rows, 405 columns, and 2386 nonzeros.
Reduced MIP has 363 binaries, 42 generals, 0 SOSs, and 117 indicators.
Presolve time = 0.00 sec. (4.41 ticks)
Probing time = 0.01 sec. (4.87 ticks)
Tried aggregator 2 times.
Aggregator did 18 substitutions.
Reduced MIP has 1048 rows, 387 columns, and 2350 nonzeros.
Reduced MIP has 345 binaries, 42 generals, 0 SOSs, and 117 indicators.
Presolve time = 0.00 sec. (2.83 ticks)
Probing time = 0.00 sec. (2.92 ticks)
Clique table members: 1841.
MIP emphasis: balance optimality and feasibility.
MIP search method: dynamic search.
Parallel mode: deterministic, using up to 4 threads.
Root relaxation solution time = 0.01 sec. (4.32 ticks)

        Nodes                                         Cuts/
   Node  Left     Objective  IInf  Best Integer    Best Bound    ItCnt     Gap

*     0+    0                            7.0000        1.0000            85.71%
      0     0        1.0000   134        7.0000        1.0000       92   85.71%
*     0+    0                            5.0000        1.0000            80.00%
*     0+    0                            4.0000        1.0000            75.00%
      0     0        cutoff              4.0000        4.0000       92    0.00%
Elapsed time = 0.09 sec. (84.30 ticks, tree = 0.01 MB, solutions = 3)

Root node processing (before b&c):
  Real time             =    0.09 sec. (84.44 ticks)
Parallel b&c, 4 threads:
  Real time             =    0.00 sec. (0.00 ticks)
  Sync time (average)   =    0.00 sec.
  Wait time (average)   =    0.00 sec.
                          ------------
Total (root+branch&cut) =    0.09 sec. (84.44 ticks)
  | W
L | 0 1 2 3 4 5 6 7 8 
----------------------
0 | . 2 1 1 1 1 1 . . 
1 | . . 1 1 1 1 1 . . 
2 | . . 1 1 1 1 1 . . 
3 | . . 1 1 1 1 1 . 3 
4 | . . . . . . . . . 
5 | . . . . . . . . . 
6 | . . . . . . . . . 

Boxes' corners:      (w,l)
    Box 1 is at 
        top left     (2,0)
        bottom right (6,3)

    Box 2 is at 
        top left     (1,0)
        bottom right (1,0)

    Box 3 is at 
        top left     (8,3)
        bottom right (8,3)

    Roll length used: 4
In 0.17 seconds
